p cnf 966 2481
51 -2 -1 0
-51 2 0
-51 1 0
52 -51 -699 0
-52 51 0
-52 699 0
53 -5 -700 0
-53 5 0
-53 700 0
54 -53 -6 0
-54 53 0
-54 6 0
55 -701 -702 0
-55 701 0
-55 702 0
56 -703 -1 0
-56 703 0
-56 1 0
57 -56 -8 0
-57 56 0
-57 8 0
58 -704 -55 0
-58 704 0
-58 55 0
59 -10 -9 0
-59 10 0
-59 9 0
60 -59 -705 0
-60 59 0
-60 705 0
61 -706 -58 0
-61 706 0
-61 58 0
62 -13 -707 0
-62 13 0
-62 707 0
63 -62 -708 0
-63 62 0
-63 708 0
64 -709 -61 0
-64 709 0
-64 61 0
65 -710 -15 0
-65 710 0
-65 15 0
66 -65 -8 0
-66 65 0
-66 8 0
67 -711 -64 0
-67 711 0
-67 64 0
68 -710 -11 0
-68 710 0
-68 11 0
69 -68 -712 0
-69 68 0
-69 712 0
70 -713 -67 0
-70 713 0
-70 67 0
71 -714 -715 0
-71 714 0
-71 715 0
72 -71 -19 0
-72 71 0
-72 19 0
73 -716 -70 0
-73 716 0
-73 70 0
74 -21 -717 0
-74 21 0
-74 717 0
75 -74 -705 0
-75 74 0
-75 705 0
76 -718 -73 0
-76 718 0
-76 73 0
77 -22 -7 0
-77 22 0
-77 7 0
78 -77 -21 0
-78 77 0
-78 21 0
79 -719 -76 0
-79 719 0
-79 76 0
80 -24 -23 0
-80 24 0
-80 23 0
81 -80 -25 0
-81 80 0
-81 25 0
82 -720 -79 0
-82 720 0
-82 79 0
83 -721 -26 0
-83 721 0
-83 26 0
84 -83 -28 0
-84 83 0
-84 28 0
85 -722 -82 0
-85 722 0
-85 82 0
86 -29 -708 0
-86 29 0
-86 708 0
87 -86 -2 0
-87 86 0
-87 2 0
88 -723 -85 0
-88 723 0
-88 85 0
89 -724 -30 0
-89 724 0
-89 30 0
90 -89 -712 0
-90 89 0
-90 712 0
91 -725 -88 0
-91 725 0
-91 88 0
92 -726 -32 0
-92 726 0
-92 32 0
93 -92 -721 0
-93 92 0
-93 721 0
94 -727 -91 0
-94 727 0
-94 91 0
95 -728 -10 0
-95 728 0
-95 10 0
96 -95 -729 0
-96 95 0
-96 729 0
97 -730 -94 0
-97 730 0
-97 94 0
98 -20 -1 0
-98 20 0
-98 1 0
99 -98 -28 0
-99 98 0
-99 28 0
100 -731 -97 0
-100 731 0
-100 97 0
101 -732 -24 0
-101 732 0
-101 24 0
102 -101 -8 0
-102 101 0
-102 8 0
103 -733 -100 0
-103 733 0
-103 100 0
104 -734 -700 0
-104 734 0
-104 700 0
105 -104 -735 0
-105 104 0
-105 735 0
106 -736 -103 0
-106 736 0
-106 103 0
107 -737 -19 0
-107 737 0
-107 19 0
108 -107 -3 0
-108 107 0
-108 3 0
109 -738 -106 0
-109 738 0
-109 106 0
110 -38 -739 0
-110 38 0
-110 739 0
111 -110 -11 0
-111 110 0
-111 11 0
112 -740 -109 0
-112 740 0
-112 109 0
113 -30 -741 0
-113 30 0
-113 741 0
114 -113 -724 0
-114 113 0
-114 724 0
115 -742 -112 0
-115 742 0
-115 112 0
116 -743 -39 0
-116 743 0
-116 39 0
117 -116 -18 0
-117 116 0
-117 18 0
118 -744 -115 0
-118 744 0
-118 115 0
119 -23 -11 0
-119 23 0
-119 11 0
120 -119 -745 0
-120 119 0
-120 745 0
121 -746 -118 0
-121 746 0
-121 118 0
122 -747 -707 0
-122 747 0
-122 707 0
123 -122 -708 0
-123 122 0
-123 708 0
124 -748 -121 0
-124 748 0
-124 121 0
125 -19 -749 0
-125 19 0
-125 749 0
126 -125 -11 0
-126 125 0
-126 11 0
127 -750 -124 0
-127 750 0
-127 124 0
128 -42 -751 0
-128 42 0
-128 751 0
129 -128 -27 0
-129 128 0
-129 27 0
130 -752 -127 0
-130 752 0
-130 127 0
131 -20 -715 0
-131 20 0
-131 715 0
132 -131 -43 0
-132 131 0
-132 43 0
133 -753 -130 0
-133 753 0
-133 130 0
134 -754 -17 0
-134 754 0
-134 17 0
135 -134 -755 0
-135 134 0
-135 755 0
136 -756 -133 0
-136 756 0
-136 133 0
137 -726 -29 0
-137 726 0
-137 29 0
138 -137 -745 0
-138 137 0
-138 745 0
139 -757 -136 0
-139 757 0
-139 136 0
140 -726 -22 0
-140 726 0
-140 22 0
141 -140 -21 0
-141 140 0
-141 21 0
142 -758 -139 0
-142 758 0
-142 139 0
143 -12 -703 0
-143 12 0
-143 703 0
144 -143 -759 0
-144 143 0
-144 759 0
145 -760 -142 0
-145 760 0
-145 142 0
146 -761 -747 0
-146 761 0
-146 747 0
147 -146 -44 0
-147 146 0
-147 44 0
148 -762 -145 0
-148 762 0
-148 145 0
149 -732 -23 0
-149 732 0
-149 23 0
150 -149 -721 0
-150 149 0
-150 721 0
151 -763 -148 0
-151 763 0
-151 148 0
152 -764 -751 0
-152 764 0
-152 751 0
153 -152 -755 0
-153 152 0
-153 755 0
154 -765 -151 0
-154 765 0
-154 151 0
155 -39 -754 0
-155 39 0
-155 754 0
156 -155 -6 0
-156 155 0
-156 6 0
157 -766 -154 0
-157 766 0
-157 154 0
158 -14 -715 0
-158 14 0
-158 715 0
159 -158 -16 0
-159 158 0
-159 16 0
160 -767 -157 0
-160 767 0
-160 157 0
161 -728 -13 0
-161 728 0
-161 13 0
162 -161 -747 0
-162 161 0
-162 747 0
163 -768 -160 0
-163 768 0
-163 160 0
164 -769 -739 0
-164 769 0
-164 739 0
165 -164 -755 0
-165 164 0
-165 755 0
166 -770 -163 0
-166 770 0
-166 163 0
167 -30 -15 0
-167 30 0
-167 15 0
168 -167 -729 0
-168 167 0
-168 729 0
169 -771 -166 0
-169 771 0
-169 166 0
170 -38 -737 0
-170 38 0
-170 737 0
171 -170 -772 0
-171 170 0
-171 772 0
172 -773 -169 0
-172 773 0
-172 169 0
173 -734 -774 0
-173 734 0
-173 774 0
174 -173 -712 0
-174 173 0
-174 712 0
175 -775 -172 0
-175 775 0
-175 172 0
176 -735 -708 0
-176 735 0
-176 708 0
177 -176 -703 0
-177 176 0
-177 703 0
178 -776 -175 0
-178 776 0
-178 175 0
179 -728 -707 0
-179 728 0
-179 707 0
180 -179 -745 0
-180 179 0
-180 745 0
181 -777 -178 0
-181 777 0
-181 178 0
182 -34 -15 0
-182 34 0
-182 15 0
183 -182 -778 0
-183 182 0
-183 778 0
184 -779 -181 0
-184 779 0
-184 181 0
185 -43 -732 0
-185 43 0
-185 732 0
186 -185 -699 0
-186 185 0
-186 699 0
187 -780 -184 0
-187 780 0
-187 184 0
188 -31 -12 0
-188 31 0
-188 12 0
189 -188 -36 0
-189 188 0
-189 36 0
190 -781 -187 0
-190 781 0
-190 187 0
191 -735 -20 0
-191 735 0
-191 20 0
192 -191 -759 0
-192 191 0
-192 759 0
193 -782 -190 0
-193 782 0
-193 190 0
194 -47 -743 0
-194 47 0
-194 743 0
195 -194 -28 0
-195 194 0
-195 28 0
196 -783 -193 0
-196 783 0
-196 193 0
197 -30 -10 0
-197 30 0
-197 10 0
198 -197 -2 0
-198 197 0
-198 2 0
199 -784 -196 0
-199 784 0
-199 196 0
200 -37 -785 0
-200 37 0
-200 785 0
201 -200 -41 0
-201 200 0
-201 41 0
202 -786 -199 0
-202 786 0
-202 199 0
203 -754 -4 0
-203 754 0
-203 4 0
204 -203 -48 0
-204 203 0
-204 48 0
205 -787 -202 0
-205 787 0
-205 202 0
206 -47 -23 0
-206 47 0
-206 23 0
207 -206 -24 0
-207 206 0
-207 24 0
208 -788 -205 0
-208 788 0
-208 205 0
209 -39 -703 0
-209 39 0
-209 703 0
210 -209 -789 0
-210 209 0
-210 789 0
211 -790 -208 0
-211 790 0
-211 208 0
212 -726 -28 0
-212 726 0
-212 28 0
213 -212 -764 0
-213 212 0
-213 764 0
214 -791 -211 0
-214 791 0
-214 211 0
215 -29 -12 0
-215 29 0
-215 12 0
216 -215 -708 0
-216 215 0
-216 708 0
217 -792 -214 0
-217 792 0
-217 214 0
218 -26 -741 0
-218 26 0
-218 741 0
219 -218 -41 0
-219 218 0
-219 41 0
220 -793 -217 0
-220 793 0
-220 217 0
221 -13 -5 0
-221 13 0
-221 5 0
222 -221 -41 0
-222 221 0
-222 41 0
223 -794 -220 0
-223 794 0
-223 220 0
224 -732 -754 0
-224 732 0
-224 754 0
225 -224 -44 0
-225 224 0
-225 44 0
226 -795 -223 0
-226 795 0
-226 223 0
227 -14 -4 0
-227 14 0
-227 4 0
228 -227 -789 0
-228 227 0
-228 789 0
229 -796 -226 0
-229 796 0
-229 226 0
230 -737 -12 0
-230 737 0
-230 12 0
231 -230 -759 0
-231 230 0
-231 759 0
232 -797 -229 0
-232 797 0
-232 229 0
233 -798 -1 0
-233 798 0
-233 1 0
234 -233 -48 0
-234 233 0
-234 48 0
235 -799 -232 0
-235 799 0
-235 232 0
236 -737 -700 0
-236 737 0
-236 700 0
237 -236 -703 0
-237 236 0
-237 703 0
238 -800 -235 0
-238 800 0
-238 235 0
239 -47 -3 0
-239 47 0
-239 3 0
240 -239 -8 0
-240 239 0
-240 8 0
241 -801 -238 0
-241 801 0
-241 238 0
242 -44 -754 0
-242 44 0
-242 754 0
243 -242 -38 0
-243 242 0
-243 38 0
244 -802 -241 0
-244 802 0
-244 241 0
245 -803 -715 0
-245 803 0
-245 715 0
246 -245 -47 0
-246 245 0
-246 47 0
247 -804 -244 0
-247 804 0
-247 244 0
248 -42 -22 0
-248 42 0
-248 22 0
249 -248 -44 0
-249 248 0
-249 44 0
250 -805 -247 0
-250 805 0
-250 247 0
251 -33 -703 0
-251 33 0
-251 703 0
252 -251 -41 0
-252 251 0
-252 41 0
253 -806 -250 0
-253 806 0
-253 250 0
254 -43 -721 0
-254 43 0
-254 721 0
255 -254 -759 0
-255 254 0
-255 759 0
256 -807 -253 0
-256 807 0
-256 253 0
257 -761 -37 0
-257 761 0
-257 37 0
258 -257 -16 0
-258 257 0
-258 16 0
259 -808 -256 0
-259 808 0
-259 256 0
260 -45 -735 0
-260 45 0
-260 735 0
261 -260 -5 0
-261 260 0
-261 5 0
262 -809 -259 0
-262 809 0
-262 259 0
263 -10 -810 0
-263 10 0
-263 810 0
264 -263 -772 0
-264 263 0
-264 772 0
265 -811 -262 0
-265 811 0
-265 262 0
266 -798 -769 0
-266 798 0
-266 769 0
267 -266 -44 0
-267 266 0
-267 44 0
268 -812 -265 0
-268 812 0
-268 265 0
269 -737 -15 0
-269 737 0
-269 15 0
270 -269 -743 0
-270 269 0
-270 743 0
271 -813 -268 0
-271 813 0
-271 268 0
272 -732 -4 0
-272 732 0
-272 4 0
273 -272 -7 0
-273 272 0
-273 7 0
274 -814 -271 0
-274 814 0
-274 271 0
275 -26 -815 0
-275 26 0
-275 815 0
276 -275 -46 0
-276 275 0
-276 46 0
277 -816 -274 0
-277 816 0
-277 274 0
278 -817 -29 0
-278 817 0
-278 29 0
279 -278 -772 0
-279 278 0
-279 772 0
280 -818 -277 0
-280 818 0
-280 277 0
281 -48 -40 0
-281 48 0
-281 40 0
282 -281 -699 0
-282 281 0
-282 699 0
283 -819 -280 0
-283 819 0
-283 280 0
284 -15 -13 0
-284 15 0
-284 13 0
285 -284 -27 0
-285 284 0
-285 27 0
286 -820 -283 0
-286 820 0
-286 283 0
287 -728 -23 0
-287 728 0
-287 23 0
288 -287 -798 0
-288 287 0
-288 798 0
289 -821 -286 0
-289 821 0
-289 286 0
290 -822 -47 0
-290 822 0
-290 47 0
291 -290 -11 0
-291 290 0
-291 11 0
292 -823 -289 0
-292 823 0
-292 289 0
293 -98 -35 0
-293 98 0
-293 35 0
294 -824 -292 0
-294 824 0
-294 292 0
295 -726 -803 0
-295 726 0
-295 803 0
296 -295 -810 0
-296 295 0
-296 810 0
297 -825 -294 0
-297 825 0
-297 294 0
298 -23 -22 0
-298 23 0
-298 22 0
299 -298 -761 0
-299 298 0
-299 761 0
300 -826 -297 0
-300 826 0
-300 297 0
301 -772 -12 0
-301 772 0
-301 12 0
302 -301 -699 0
-302 301 0
-302 699 0
303 -827 -300 0
-303 827 0
-303 300 0
304 -712 -699 0
-304 712 0
-304 699 0
305 -304 -50 0
-305 304 0
-305 50 0
306 -828 -303 0
-306 828 0
-306 303 0
307 -732 -9 0
-307 732 0
-307 9 0
308 -307 -703 0
-308 307 0
-308 703 0
309 -829 -306 0
-309 829 0
-309 306 0
310 -48 -38 0
-310 48 0
-310 38 0
311 -310 -699 0
-311 310 0
-311 699 0
312 -830 -309 0
-312 830 0
-312 309 0
313 -815 -4 0
-313 815 0
-313 4 0
314 -313 -40 0
-314 313 0
-314 40 0
315 -831 -312 0
-315 831 0
-315 312 0
316 -749 -4 0
-316 749 0
-316 4 0
317 -316 -42 0
-317 316 0
-317 42 0
318 -832 -315 0
-318 832 0
-318 315 0
319 -734 -31 0
-319 734 0
-319 31 0
320 -319 -761 0
-320 319 0
-320 761 0
321 -833 -318 0
-321 833 0
-321 318 0
322 -32 -1 0
-322 32 0
-322 1 0
323 -322 -834 0
-323 322 0
-323 834 0
324 -835 -321 0
-324 835 0
-324 321 0
325 -32 -810 0
-325 32 0
-325 810 0
326 -325 -836 0
-326 325 0
-326 836 0
327 -837 -324 0
-327 837 0
-327 324 0
328 -23 -12 0
-328 23 0
-328 12 0
329 -328 -703 0
-329 328 0
-329 703 0
330 -838 -327 0
-330 838 0
-330 327 0
331 -778 -4 0
-331 778 0
-331 4 0
332 -331 -46 0
-332 331 0
-332 46 0
333 -839 -330 0
-333 839 0
-333 330 0
334 -836 -729 0
-334 836 0
-334 729 0
335 -334 -41 0
-335 334 0
-335 41 0
336 -840 -333 0
-336 840 0
-336 333 0
337 -62 -8 0
-337 62 0
-337 8 0
338 -841 -336 0
-338 841 0
-338 336 0
339 -755 -19 0
-339 755 0
-339 19 0
340 -339 -699 0
-340 339 0
-340 699 0
341 -842 -338 0
-341 842 0
-341 338 0
342 -32 -16 0
-342 32 0
-342 16 0
343 -342 -38 0
-343 342 0
-343 38 0
344 -843 -341 0
-344 843 0
-344 341 0
345 -729 -708 0
-345 729 0
-345 708 0
346 -345 -2 0
-346 345 0
-346 2 0
347 -844 -344 0
-347 844 0
-347 344 0
348 -735 -741 0
-348 735 0
-348 741 0
349 -348 -44 0
-349 348 0
-349 44 0
350 -845 -347 0
-350 845 0
-350 347 0
351 -734 -785 0
-351 734 0
-351 785 0
352 -351 -761 0
-352 351 0
-352 761 0
353 -846 -350 0
-353 846 0
-353 350 0
354 -47 -815 0
-354 47 0
-354 815 0
355 -354 -25 0
-355 354 0
-355 25 0
356 -847 -353 0
-356 847 0
-356 353 0
357 -822 -848 0
-357 822 0
-357 848 0
358 -357 -21 0
-358 357 0
-358 21 0
359 -849 -356 0
-359 849 0
-359 356 0
360 -19 -712 0
-360 19 0
-360 712 0
361 -360 -759 0
-361 360 0
-361 759 0
362 -850 -359 0
-362 850 0
-362 359 0
363 -37 -741 0
-363 37 0
-363 741 0
364 -363 -851 0
-364 363 0
-364 851 0
365 -852 -362 0
-365 852 0
-365 362 0
366 -44 -7 0
-366 44 0
-366 7 0
367 -366 -40 0
-367 366 0
-367 40 0
368 -853 -365 0
-368 853 0
-368 365 0
369 -721 -22 0
-369 721 0
-369 22 0
370 -369 -778 0
-370 369 0
-370 778 0
371 -854 -368 0
-371 854 0
-371 368 0
372 -769 -34 0
-372 769 0
-372 34 0
373 -372 -836 0
-373 372 0
-373 836 0
374 -855 -371 0
-374 855 0
-374 371 0
375 -34 -7 0
-375 34 0
-375 7 0
376 -375 -5 0
-376 375 0
-376 5 0
377 -856 -374 0
-377 856 0
-377 374 0
378 -16 -857 0
-378 16 0
-378 857 0
379 -378 -41 0
-379 378 0
-379 41 0
380 -858 -377 0
-380 858 0
-380 377 0
381 -735 -33 0
-381 735 0
-381 33 0
382 -381 -737 0
-382 381 0
-382 737 0
383 -859 -380 0
-383 859 0
-383 380 0
384 -848 -729 0
-384 848 0
-384 729 0
385 -384 -759 0
-385 384 0
-385 759 0
386 -860 -383 0
-386 860 0
-386 383 0
387 -29 -4 0
-387 29 0
-387 4 0
388 -387 -7 0
-388 387 0
-388 7 0
389 -861 -386 0
-389 861 0
-389 386 0
390 -37 -23 0
-390 37 0
-390 23 0
391 -390 -5 0
-391 390 0
-391 5 0
392 -862 -389 0
-392 862 0
-392 389 0
393 -49 -710 0
-393 49 0
-393 710 0
394 -393 -38 0
-394 393 0
-394 38 0
395 -863 -392 0
-395 863 0
-395 392 0
396 -728 -789 0
-396 728 0
-396 789 0
397 -396 -17 0
-397 396 0
-397 17 0
398 -864 -395 0
-398 864 0
-398 395 0
399 -7 -700 0
-399 7 0
-399 700 0
400 -399 -789 0
-400 399 0
-400 789 0
401 -865 -398 0
-401 865 0
-401 398 0
402 -34 -810 0
-402 34 0
-402 810 0
403 -402 -732 0
-403 402 0
-403 732 0
404 -866 -401 0
-404 866 0
-404 401 0
405 -815 -18 0
-405 815 0
-405 18 0
406 -405 -755 0
-406 405 0
-406 755 0
407 -867 -404 0
-407 867 0
-407 404 0
408 -30 -712 0
-408 30 0
-408 712 0
409 -408 -755 0
-409 408 0
-409 755 0
410 -868 -407 0
-410 868 0
-410 407 0
411 -728 -700 0
-411 728 0
-411 700 0
412 -411 -732 0
-412 411 0
-412 732 0
413 -869 -410 0
-413 869 0
-413 410 0
414 -707 -4 0
-414 707 0
-414 4 0
415 -414 -747 0
-415 414 0
-415 747 0
416 -870 -413 0
-416 870 0
-416 413 0
417 -22 -715 0
-417 22 0
-417 715 0
418 -417 -33 0
-418 417 0
-418 33 0
419 -871 -416 0
-419 871 0
-419 416 0
420 -40 -749 0
-420 40 0
-420 749 0
421 -420 -778 0
-421 420 0
-421 778 0
422 -872 -419 0
-422 872 0
-422 419 0
423 -724 -708 0
-423 724 0
-423 708 0
424 -423 -5 0
-424 423 0
-424 5 0
425 -873 -422 0
-425 873 0
-425 422 0
426 -39 -729 0
-426 39 0
-426 729 0
427 -426 -19 0
-427 426 0
-427 19 0
428 -874 -425 0
-428 874 0
-428 425 0
429 -30 -22 0
-429 30 0
-429 22 0
430 -429 -774 0
-430 429 0
-430 774 0
431 -875 -428 0
-431 875 0
-431 428 0
432 -49 -13 0
-432 49 0
-432 13 0
433 -432 -25 0
-433 432 0
-433 25 0
434 -876 -431 0
-434 876 0
-434 431 0
435 -735 -710 0
-435 735 0
-435 710 0
436 -435 -8 0
-436 435 0
-436 8 0
437 -877 -434 0
-437 877 0
-437 434 0
438 -31 -703 0
-438 31 0
-438 703 0
439 -438 -46 0
-439 438 0
-439 46 0
440 -878 -437 0
-440 878 0
-440 437 0
441 -747 -20 0
-441 747 0
-441 20 0
442 -441 -724 0
-442 441 0
-442 724 0
443 -879 -440 0
-443 879 0
-443 440 0
444 -164 -3 0
-444 164 0
-444 3 0
445 -880 -443 0
-445 880 0
-445 443 0
446 -26 -20 0
-446 26 0
-446 20 0
447 -446 -13 0
-447 446 0
-447 13 0
448 -881 -445 0
-448 881 0
-448 445 0
449 -23 -8 0
-449 23 0
-449 8 0
450 -449 -745 0
-450 449 0
-450 745 0
451 -882 -448 0
-451 882 0
-451 448 0
452 -728 -747 0
-452 728 0
-452 747 0
453 -452 -834 0
-453 452 0
-453 834 0
454 -883 -451 0
-454 883 0
-454 451 0
455 -817 -36 0
-455 817 0
-455 36 0
456 -455 -764 0
-456 455 0
-456 764 0
457 -884 -454 0
-457 884 0
-457 454 0
458 -732 -751 0
-458 732 0
-458 751 0
459 -458 -789 0
-459 458 0
-459 789 0
460 -885 -457 0
-460 885 0
-460 457 0
461 -735 -728 0
-461 735 0
-461 728 0
462 -461 -739 0
-462 461 0
-462 739 0
463 -886 -460 0
-463 886 0
-463 460 0
464 -803 -707 0
-464 803 0
-464 707 0
465 -464 -772 0
-465 464 0
-465 772 0
466 -887 -463 0
-466 887 0
-466 463 0
467 -798 -20 0
-467 798 0
-467 20 0
468 -467 -16 0
-468 467 0
-468 16 0
469 -888 -466 0
-469 888 0
-469 466 0
470 -49 -817 0
-470 49 0
-470 817 0
471 -470 -46 0
-471 470 0
-471 46 0
472 -889 -469 0
-472 889 0
-472 469 0
473 -735 -1 0
-473 735 0
-473 1 0
474 -473 -17 0
-474 473 0
-474 17 0
475 -890 -472 0
-475 890 0
-475 472 0
476 -769 -749 0
-476 769 0
-476 749 0
477 -476 -721 0
-477 476 0
-477 721 0
478 -891 -475 0
-478 891 0
-478 475 0
479 -28 -16 0
-479 28 0
-479 16 0
480 -479 -714 0
-480 479 0
-480 714 0
481 -892 -478 0
-481 892 0
-481 478 0
482 -31 -815 0
-482 31 0
-482 815 0
483 -482 -21 0
-483 482 0
-483 21 0
484 -893 -481 0
-484 893 0
-484 481 0
485 -822 -743 0
-485 822 0
-485 743 0
486 -485 -745 0
-486 485 0
-486 745 0
487 -894 -484 0
-487 894 0
-487 484 0
488 -726 -785 0
-488 726 0
-488 785 0
489 -488 -737 0
-489 488 0
-489 737 0
490 -895 -487 0
-490 895 0
-490 487 0
491 -29 -1 0
-491 29 0
-491 1 0
492 -491 -745 0
-492 491 0
-492 745 0
493 -896 -490 0
-493 896 0
-493 490 0
494 -43 -13 0
-494 43 0
-494 13 0
495 -494 -17 0
-495 494 0
-495 17 0
496 -897 -493 0
-496 897 0
-496 493 0
497 -747 -857 0
-497 747 0
-497 857 0
498 -497 -778 0
-498 497 0
-498 778 0
499 -898 -496 0
-499 898 0
-499 496 0
500 -734 -810 0
-500 734 0
-500 810 0
501 -500 -755 0
-501 500 0
-501 755 0
502 -899 -499 0
-502 899 0
-502 499 0
503 -778 -29 0
-503 778 0
-503 29 0
504 -503 -764 0
-504 503 0
-504 764 0
505 -900 -502 0
-505 900 0
-505 502 0
506 -761 -785 0
-506 761 0
-506 785 0
507 -506 -848 0
-507 506 0
-507 848 0
508 -901 -505 0
-508 901 0
-508 505 0
509 -724 -815 0
-509 724 0
-509 815 0
510 -509 -39 0
-510 509 0
-510 39 0
511 -902 -508 0
-511 902 0
-511 508 0
512 -728 -26 0
-512 728 0
-512 26 0
513 -512 -13 0
-513 512 0
-513 13 0
514 -903 -511 0
-514 903 0
-514 511 0
515 -37 -34 0
-515 37 0
-515 34 0
516 -515 -19 0
-516 515 0
-516 19 0
517 -904 -514 0
-517 904 0
-517 514 0
518 -817 -12 0
-518 817 0
-518 12 0
519 -518 -17 0
-519 518 0
-519 17 0
520 -905 -517 0
-520 905 0
-520 517 0
521 -372 -21 0
-521 372 0
-521 21 0
522 -906 -520 0
-522 906 0
-522 520 0
523 -40 -29 0
-523 40 0
-523 29 0
524 -523 -3 0
-524 523 0
-524 3 0
525 -907 -522 0
-525 907 0
-525 522 0
526 -45 -734 0
-526 45 0
-526 734 0
527 -526 -18 0
-527 526 0
-527 18 0
528 -908 -525 0
-528 908 0
-528 525 0
529 -708 -12 0
-529 708 0
-529 12 0
530 -529 -745 0
-530 529 0
-530 745 0
531 -909 -528 0
-531 909 0
-531 528 0
532 -747 -721 0
-532 747 0
-532 721 0
533 -532 -40 0
-533 532 0
-533 40 0
534 -910 -531 0
-534 910 0
-534 531 0
535 -29 -785 0
-535 29 0
-535 785 0
536 -535 -761 0
-536 535 0
-536 761 0
537 -911 -534 0
-537 911 0
-537 534 0
538 -798 -751 0
-538 798 0
-538 751 0
539 -538 -41 0
-539 538 0
-539 41 0
540 -912 -537 0
-540 912 0
-540 537 0
541 -43 -20 0
-541 43 0
-541 20 0
542 -541 -39 0
-542 541 0
-542 39 0
543 -913 -540 0
-543 913 0
-543 540 0
544 -29 -10 0
-544 29 0
-544 10 0
545 -544 -699 0
-545 544 0
-545 699 0
546 -914 -543 0
-546 914 0
-546 543 0
547 -33 -700 0
-547 33 0
-547 700 0
548 -547 -40 0
-548 547 0
-548 40 0
549 -915 -546 0
-549 915 0
-549 546 0
550 -10 -2 0
-550 10 0
-550 2 0
551 -550 -19 0
-551 550 0
-551 19 0
552 -916 -549 0
-552 916 0
-552 549 0
553 -712 -707 0
-553 712 0
-553 707 0
554 -553 -836 0
-554 553 0
-554 836 0
555 -917 -552 0
-555 917 0
-555 552 0
556 -710 -9 0
-556 710 0
-556 9 0
557 -556 -28 0
-557 556 0
-557 28 0
558 -918 -555 0
-558 918 0
-558 555 0
559 -11 -1 0
-559 11 0
-559 1 0
560 -559 -41 0
-560 559 0
-560 41 0
561 -919 -558 0
-561 919 0
-561 558 0
562 -848 -15 0
-562 848 0
-562 15 0
563 -562 -44 0
-563 562 0
-563 44 0
564 -920 -561 0
-564 920 0
-564 561 0
565 -747 -2 0
-565 747 0
-565 2 0
566 -565 -8 0
-566 565 0
-566 8 0
567 -921 -564 0
-567 921 0
-567 564 0
568 -851 -741 0
-568 851 0
-568 741 0
569 -568 -789 0
-569 568 0
-569 789 0
570 -922 -567 0
-570 922 0
-570 567 0
571 -728 -857 0
-571 728 0
-571 857 0
572 -571 -11 0
-572 571 0
-572 11 0
573 -923 -570 0
-573 923 0
-573 570 0
574 -924 -707 0
-574 924 0
-574 707 0
575 -574 -3 0
-575 574 0
-575 3 0
576 -925 -573 0
-576 925 0
-576 573 0
577 -798 -810 0
-577 798 0
-577 810 0
578 -577 -834 0
-578 577 0
-578 834 0
579 -926 -576 0
-579 926 0
-579 576 0
580 -724 -747 0
-580 724 0
-580 747 0
581 -580 -14 0
-581 580 0
-581 14 0
582 -927 -579 0
-582 927 0
-582 579 0
583 -23 -717 0
-583 23 0
-583 717 0
584 -583 -50 0
-584 583 0
-584 50 0
585 -928 -582 0
-585 928 0
-585 582 0
586 -924 -734 0
-586 924 0
-586 734 0
587 -586 -44 0
-587 586 0
-587 44 0
588 -929 -585 0
-588 929 0
-588 585 0
589 -815 -21 0
-589 815 0
-589 21 0
590 -589 -11 0
-590 589 0
-590 11 0
591 -930 -588 0
-591 930 0
-591 588 0
592 -13 -810 0
-592 13 0
-592 810 0
593 -592 -48 0
-593 592 0
-593 48 0
594 -931 -591 0
-594 931 0
-594 591 0
595 -22 -751 0
-595 22 0
-595 751 0
596 -595 -8 0
-596 595 0
-596 8 0
597 -932 -594 0
-597 932 0
-597 594 0
598 -728 -12 0
-598 728 0
-598 12 0
599 -598 -26 0
-599 598 0
-599 26 0
600 -933 -597 0
-600 933 0
-600 597 0
601 -36 -747 0
-601 36 0
-601 747 0
602 -601 -27 0
-602 601 0
-602 27 0
603 -934 -600 0
-603 934 0
-603 600 0
604 -32 -17 0
-604 32 0
-604 17 0
605 -604 -3 0
-605 604 0
-605 3 0
606 -935 -603 0
-606 935 0
-606 603 0
607 -803 -834 0
-607 803 0
-607 834 0
608 -607 -764 0
-608 607 0
-608 764 0
609 -936 -606 0
-609 936 0
-609 606 0
610 -42 -815 0
-610 42 0
-610 815 0
611 -610 -40 0
-611 610 0
-611 40 0
612 -937 -609 0
-612 937 0
-612 609 0
613 -36 -754 0
-613 36 0
-613 754 0
614 -613 -11 0
-614 613 0
-614 11 0
615 -938 -612 0
-615 938 0
-615 612 0
616 -739 -9 0
-616 739 0
-616 9 0
617 -616 -745 0
-617 616 0
-617 745 0
618 -939 -615 0
-618 939 0
-618 615 0
619 -924 -4 0
-619 924 0
-619 4 0
620 -619 -759 0
-620 619 0
-620 759 0
621 -940 -618 0
-621 940 0
-621 618 0
622 -721 -707 0
-622 721 0
-622 707 0
623 -622 -46 0
-623 622 0
-623 46 0
624 -941 -621 0
-624 941 0
-624 621 0
625 -396 -41 0
-625 396 0
-625 41 0
626 -942 -624 0
-626 942 0
-626 624 0
627 -33 -20 0
-627 33 0
-627 20 0
628 -627 -8 0
-628 627 0
-628 8 0
629 -943 -626 0
-629 943 0
-629 626 0
630 -761 -7 0
-630 761 0
-630 7 0
631 -630 -2 0
-631 630 0
-631 2 0
632 -944 -629 0
-632 944 0
-632 629 0
633 -36 -30 0
-633 36 0
-633 30 0
634 -633 -18 0
-634 633 0
-634 18 0
635 -945 -632 0
-635 945 0
-635 632 0
636 -42 -12 0
-636 42 0
-636 12 0
637 -636 -729 0
-637 636 0
-637 729 0
638 -946 -635 0
-638 946 0
-638 635 0
639 -46 -40 0
-639 46 0
-639 40 0
640 -639 -41 0
-640 639 0
-640 41 0
641 -947 -638 0
-641 947 0
-641 638 0
642 -817 -38 0
-642 817 0
-642 38 0
643 -642 -25 0
-643 642 0
-643 25 0
644 -948 -641 0
-644 948 0
-644 641 0
645 -735 -26 0
-645 735 0
-645 26 0
646 -645 -755 0
-646 645 0
-646 755 0
647 -949 -644 0
-647 949 0
-647 644 0
648 -732 -26 0
-648 732 0
-648 26 0
649 -648 -2 0
-649 648 0
-649 2 0
650 -950 -647 0
-650 950 0
-650 647 0
651 -46 -30 0
-651 46 0
-651 30 0
652 -651 -3 0
-652 651 0
-652 3 0
653 -951 -650 0
-653 951 0
-653 650 0
654 -39 -737 0
-654 39 0
-654 737 0
655 -654 -772 0
-655 654 0
-655 772 0
656 -952 -653 0
-656 952 0
-656 653 0
657 -32 -707 0
-657 32 0
-657 707 0
658 -657 -708 0
-658 657 0
-658 708 0
659 -953 -656 0
-659 953 0
-659 656 0
660 -732 -747 0
-660 732 0
-660 747 0
661 -660 -25 0
-661 660 0
-661 25 0
662 -954 -659 0
-662 954 0
-662 659 0
663 -37 -834 0
-663 37 0
-663 834 0
664 -663 -712 0
-664 663 0
-664 712 0
665 -955 -662 0
-665 955 0
-665 662 0
666 -710 -7 0
-666 710 0
-666 7 0
667 -666 -17 0
-667 666 0
-667 17 0
668 -956 -665 0
-668 956 0
-668 665 0
669 -20 -4 0
-669 20 0
-669 4 0
670 -669 -822 0
-670 669 0
-670 822 0
671 -957 -668 0
-671 957 0
-671 668 0
672 -734 -707 0
-672 734 0
-672 707 0
673 -672 -743 0
-673 672 0
-673 743 0
674 -958 -671 0
-674 958 0
-674 671 0
675 -743 -6 0
-675 743 0
-675 6 0
676 -675 -19 0
-676 675 0
-676 19 0
677 -959 -674 0
-677 959 0
-677 674 0
678 -739 -4 0
-678 739 0
-678 4 0
679 -678 -745 0
-679 678 0
-679 745 0
680 -960 -677 0
-680 960 0
-680 677 0
681 -755 -17 0
-681 755 0
-681 17 0
682 -681 -836 0
-682 681 0
-682 836 0
683 -961 -680 0
-683 961 0
-683 680 0
684 -49 -700 0
-684 49 0
-684 700 0
685 -684 -774 0
-685 684 0
-685 774 0
686 -962 -683 0
-686 962 0
-686 683 0
687 -769 -705 0
-687 769 0
-687 705 0
688 -687 -759 0
-688 687 0
-688 759 0
689 -963 -686 0
-689 963 0
-689 686 0
690 -45 -810 0
-690 45 0
-690 810 0
691 -690 -5 0
-691 690 0
-691 5 0
692 -964 -689 0
-692 964 0
-692 689 0
693 -24 -714 0
-693 24 0
-693 714 0
694 -693 -8 0
-694 693 0
-694 8 0
695 -965 -692 0
-695 965 0
-695 692 0
696 -822 -705 0
-696 822 0
-696 705 0
697 -696 -8 0
-697 696 0
-697 8 0
698 -966 -695 0
-698 966 0
-698 695 0
-699 -3 0
699 3 0
-700 -4 0
700 4 0
-701 -54 0
701 54 0
-702 -52 0
702 52 0
-703 -7 0
703 7 0
-704 -57 0
704 57 0
-705 -11 0
705 11 0
-706 -60 0
706 60 0
-707 -12 0
707 12 0
-708 -14 0
708 14 0
-709 -63 0
709 63 0
-710 -16 0
710 16 0
-711 -66 0
711 66 0
-712 -17 0
712 17 0
-713 -69 0
713 69 0
-714 -18 0
714 18 0
-715 -13 0
715 13 0
-716 -72 0
716 72 0
-717 -20 0
717 20 0
-718 -75 0
718 75 0
-719 -78 0
719 78 0
-720 -81 0
720 81 0
-721 -27 0
721 27 0
-722 -84 0
722 84 0
-723 -87 0
723 87 0
-724 -31 0
724 31 0
-725 -90 0
725 90 0
-726 -33 0
726 33 0
-727 -93 0
727 93 0
-728 -34 0
728 34 0
-729 -35 0
729 35 0
-730 -96 0
730 96 0
-731 -99 0
731 99 0
-732 -36 0
732 36 0
-733 -102 0
733 102 0
-734 -32 0
734 32 0
-735 -37 0
735 37 0
-736 -105 0
736 105 0
-737 -24 0
737 24 0
-738 -108 0
738 108 0
-739 -28 0
739 28 0
-740 -111 0
740 111 0
-741 -15 0
741 15 0
-742 -114 0
742 114 0
-743 -40 0
743 40 0
-744 -117 0
744 117 0
-745 -41 0
745 41 0
-746 -120 0
746 120 0
-747 -29 0
747 29 0
-748 -123 0
748 123 0
-749 -10 0
749 10 0
-750 -126 0
750 126 0
-751 -9 0
751 9 0
-752 -129 0
752 129 0
-753 -132 0
753 132 0
-754 -26 0
754 26 0
-755 -25 0
755 25 0
-756 -135 0
756 135 0
-757 -138 0
757 138 0
-758 -141 0
758 141 0
-759 -8 0
759 8 0
-760 -144 0
760 144 0
-761 -42 0
761 42 0
-762 -147 0
762 147 0
-763 -150 0
763 150 0
-764 -21 0
764 21 0
-765 -153 0
765 153 0
-766 -156 0
766 156 0
-767 -159 0
767 159 0
-768 -162 0
768 162 0
-769 -45 0
769 45 0
-770 -165 0
770 165 0
-771 -168 0
771 168 0
-772 -46 0
772 46 0
-773 -171 0
773 171 0
-774 -19 0
774 19 0
-775 -174 0
775 174 0
-776 -177 0
776 177 0
-777 -180 0
777 180 0
-778 -38 0
778 38 0
-779 -183 0
779 183 0
-780 -186 0
780 186 0
-781 -189 0
781 189 0
-782 -192 0
782 192 0
-783 -195 0
783 195 0
-784 -198 0
784 198 0
-785 -23 0
785 23 0
-786 -201 0
786 201 0
-787 -204 0
787 204 0
-788 -207 0
788 207 0
-789 -2 0
789 2 0
-790 -210 0
790 210 0
-791 -213 0
791 213 0
-792 -216 0
792 216 0
-793 -219 0
793 219 0
-794 -222 0
794 222 0
-795 -225 0
795 225 0
-796 -228 0
796 228 0
-797 -231 0
797 231 0
-798 -47 0
798 47 0
-799 -234 0
799 234 0
-800 -237 0
800 237 0
-801 -240 0
801 240 0
-802 -243 0
802 243 0
-803 -30 0
803 30 0
-804 -246 0
804 246 0
-805 -249 0
805 249 0
-806 -252 0
806 252 0
-807 -255 0
807 255 0
-808 -258 0
808 258 0
-809 -261 0
809 261 0
-810 -1 0
810 1 0
-811 -264 0
811 264 0
-812 -267 0
812 267 0
-813 -270 0
813 270 0
-814 -273 0
814 273 0
-815 -22 0
815 22 0
-816 -276 0
816 276 0
-817 -43 0
817 43 0
-818 -279 0
818 279 0
-819 -282 0
819 282 0
-820 -285 0
820 285 0
-821 -288 0
821 288 0
-822 -49 0
822 49 0
-823 -291 0
823 291 0
-824 -293 0
824 293 0
-825 -296 0
825 296 0
-826 -299 0
826 299 0
-827 -302 0
827 302 0
-828 -305 0
828 305 0
-829 -308 0
829 308 0
-830 -311 0
830 311 0
-831 -314 0
831 314 0
-832 -317 0
832 317 0
-833 -320 0
833 320 0
-834 -6 0
834 6 0
-835 -323 0
835 323 0
-836 -50 0
836 50 0
-837 -326 0
837 326 0
-838 -329 0
838 329 0
-839 -332 0
839 332 0
-840 -335 0
840 335 0
-841 -337 0
841 337 0
-842 -340 0
842 340 0
-843 -343 0
843 343 0
-844 -346 0
844 346 0
-845 -349 0
845 349 0
-846 -352 0
846 352 0
-847 -355 0
847 355 0
-848 -48 0
848 48 0
-849 -358 0
849 358 0
-850 -361 0
850 361 0
-851 -44 0
851 44 0
-852 -364 0
852 364 0
-853 -367 0
853 367 0
-854 -370 0
854 370 0
-855 -373 0
855 373 0
-856 -376 0
856 376 0
-857 -5 0
857 5 0
-858 -379 0
858 379 0
-859 -382 0
859 382 0
-860 -385 0
860 385 0
-861 -388 0
861 388 0
-862 -391 0
862 391 0
-863 -394 0
863 394 0
-864 -397 0
864 397 0
-865 -400 0
865 400 0
-866 -403 0
866 403 0
-867 -406 0
867 406 0
-868 -409 0
868 409 0
-869 -412 0
869 412 0
-870 -415 0
870 415 0
-871 -418 0
871 418 0
-872 -421 0
872 421 0
-873 -424 0
873 424 0
-874 -427 0
874 427 0
-875 -430 0
875 430 0
-876 -433 0
876 433 0
-877 -436 0
877 436 0
-878 -439 0
878 439 0
-879 -442 0
879 442 0
-880 -444 0
880 444 0
-881 -447 0
881 447 0
-882 -450 0
882 450 0
-883 -453 0
883 453 0
-884 -456 0
884 456 0
-885 -459 0
885 459 0
-886 -462 0
886 462 0
-887 -465 0
887 465 0
-888 -468 0
888 468 0
-889 -471 0
889 471 0
-890 -474 0
890 474 0
-891 -477 0
891 477 0
-892 -480 0
892 480 0
-893 -483 0
893 483 0
-894 -486 0
894 486 0
-895 -489 0
895 489 0
-896 -492 0
896 492 0
-897 -495 0
897 495 0
-898 -498 0
898 498 0
-899 -501 0
899 501 0
-900 -504 0
900 504 0
-901 -507 0
901 507 0
-902 -510 0
902 510 0
-903 -513 0
903 513 0
-904 -516 0
904 516 0
-905 -519 0
905 519 0
-906 -521 0
906 521 0
-907 -524 0
907 524 0
-908 -527 0
908 527 0
-909 -530 0
909 530 0
-910 -533 0
910 533 0
-911 -536 0
911 536 0
-912 -539 0
912 539 0
-913 -542 0
913 542 0
-914 -545 0
914 545 0
-915 -548 0
915 548 0
-916 -551 0
916 551 0
-917 -554 0
917 554 0
-918 -557 0
918 557 0
-919 -560 0
919 560 0
-920 -563 0
920 563 0
-921 -566 0
921 566 0
-922 -569 0
922 569 0
-923 -572 0
923 572 0
-924 -39 0
924 39 0
-925 -575 0
925 575 0
-926 -578 0
926 578 0
-927 -581 0
927 581 0
-928 -584 0
928 584 0
-929 -587 0
929 587 0
-930 -590 0
930 590 0
-931 -593 0
931 593 0
-932 -596 0
932 596 0
-933 -599 0
933 599 0
-934 -602 0
934 602 0
-935 -605 0
935 605 0
-936 -608 0
936 608 0
-937 -611 0
937 611 0
-938 -614 0
938 614 0
-939 -617 0
939 617 0
-940 -620 0
940 620 0
-941 -623 0
941 623 0
-942 -625 0
942 625 0
-943 -628 0
943 628 0
-944 -631 0
944 631 0
-945 -634 0
945 634 0
-946 -637 0
946 637 0
-947 -640 0
947 640 0
-948 -643 0
948 643 0
-949 -646 0
949 646 0
-950 -649 0
950 649 0
-951 -652 0
951 652 0
-952 -655 0
952 655 0
-953 -658 0
953 658 0
-954 -661 0
954 661 0
-955 -664 0
955 664 0
-956 -667 0
956 667 0
-957 -670 0
957 670 0
-958 -673 0
958 673 0
-959 -676 0
959 676 0
-960 -679 0
960 679 0
-961 -682 0
961 682 0
-962 -685 0
962 685 0
-963 -688 0
963 688 0
-964 -691 0
964 691 0
-965 -694 0
965 694 0
-966 -697 0
966 697 0
698 0
